src/zimpl/lpfiles/knapsack50nr10.lp
\ This file was automatically generated by Zimpl
\ param file := "instances/knapsack50nr10.txt";
\ param n := read file as "1n" use 1 comment "#";
\ do print n;
\ param m := read file as "1n" skip 1 use 1 comment "#";
\ do print m;
\ param k := read file as "1n" skip 2 use 1 comment "#";
\ do print k;
\ set Items := {1 to n};
\ set Knapsacks := {1 to m};
\ set Capacities := {1 to k};
\ param p[Items] := read file as "1n" skip 3 use n comment "#";
\ param w[Items*Capacities] := read file as "n+" skip 3+n use n comment "#";
\ param c[Knapsacks*Capacities] := read file as "n+" skip 3+2*n use m comment "#";
\ var x[Knapsacks * Items] binary;
\ maximize profit: sum <i> in Knapsacks: sum <j> in Items: p[j]* x[i,j];
\ subto cap: forall <i> in Knapsacks: forall <h> in Capacities: sum <j> in Items: w[j,h]*x[i,j] <= c[i,h];
\ subto one: forall <j> in Items: sum <i> in Knapsacks: x[i,j] <= 1;
\Problem name: zimplfiles/knapsack50nr10.zpl
Maximize
 profit:  +458 x#1#1 +170 x#1#2 +387 x#1#3 +668 x#1#4 +744 x#1#5 +839 x#1#6
  +857 x#1#7 +508 x#1#8 +250 x#1#9 +618 x#1#10 +40 x#1#11 +295 x#1#12
  +148 x#1#13 +938 x#1#14 +215 x#1#15 +233 x#1#16 +960 x#1#17 +492 x#1#18
  +881 x#1#19 +795 x#1#20 +391 x#1#21 +751 x#1#22 +735 x#1#23 +81 x#1#24
  +670 x#1#25 +652 x#1#26 +879 x#1#27 +111 x#1#28 +711 x#1#29 +115 x#1#30
  +369 x#1#31 +997 x#1#32 +490 x#1#33 +688 x#1#34 +242 x#1#35 +243 x#1#36
  +367 x#1#37 +4 x#1#38 +711 x#1#39 +510 x#1#40 +842 x#1#41 +336 x#1#42
  +264 x#1#43 +304 x#1#44 +124 x#1#45 +228 x#1#46 +927 x#1#47 +439 x#1#48
  +97 x#1#49 +646 x#1#50 +458 x#2#1 +170 x#2#2 +387 x#2#3 +668 x#2#4
  +744 x#2#5 +839 x#2#6 +857 x#2#7 +508 x#2#8 +250 x#2#9 +618 x#2#10
  +40 x#2#11 +295 x#2#12 +148 x#2#13 +938 x#2#14 +215 x#2#15 +233 x#2#16
  +960 x#2#17 +492 x#2#18 +881 x#2#19 +795 x#2#20 +391 x#2#21 +751 x#2#22
  +735 x#2#23 +81 x#2#24 +670 x#2#25 +652 x#2#26 +879 x#2#27 +111 x#2#28
  +711 x#2#29 +115 x#2#30 +369 x#2#31 +997 x#2#32 +490 x#2#33 +688 x#2#34
  +242 x#2#35 +243 x#2#36 +367 x#2#37 +4 x#2#38 +711 x#2#39 +510 x#2#40
  +842 x#2#41 +336 x#2#42 +264 x#2#43 +304 x#2#44 +124 x#2#45 +228 x#2#46
  +927 x#2#47 +439 x#2#48 +97 x#2#49 +646 x#2#50 +458 x#3#1 +170 x#3#2
  +387 x#3#3 +668 x#3#4 +744 x#3#5 +839 x#3#6 +857 x#3#7 +508 x#3#8
  +250 x#3#9 +618 x#3#10 +40 x#3#11 +295 x#3#12 +148 x#3#13 +938 x#3#14
  +215 x#3#15 +233 x#3#16 +960 x#3#17 +492 x#3#18 +881 x#3#19 +795 x#3#20
  +391 x#3#21 +751 x#3#22 +735 x#3#23 +81 x#3#24 +670 x#3#25 +652 x#3#26
  +879 x#3#27 +111 x#3#28 +711 x#3#29 +115 x#3#30 +369 x#3#31 +997 x#3#32
  +490 x#3#33 +688 x#3#34 +242 x#3#35 +243 x#3#36 +367 x#3#37 +4 x#3#38
  +711 x#3#39 +510 x#3#40 +842 x#3#41 +336 x#3#42 +264 x#3#43 +304 x#3#44
  +124 x#3#45 +228 x#3#46 +927 x#3#47 +439 x#3#48 +97 x#3#49 +646 x#3#50
  +458 x#4#1 +170 x#4#2 +387 x#4#3 +668 x#4#4 +744 x#4#5 +839 x#4#6
  +857 x#4#7 +508 x#4#8 +250 x#4#9 +618 x#4#10 +40 x#4#11 +295 x#4#12
  +148 x#4#13 +938 x#4#14 +215 x#4#15 +233 x#4#16 +960 x#4#17 +492 x#4#18
  +881 x#4#19 +795 x#4#20 +391 x#4#21 +751 x#4#22 +735 x#4#23 +81 x#4#24
  +670 x#4#25 +652 x#4#26 +879 x#4#27 +111 x#4#28 +711 x#4#29 +115 x#4#30
  +369 x#4#31 +997 x#4#32 +490 x#4#33 +688 x#4#34 +242 x#4#35 +243 x#4#36
  +367 x#4#37 +4 x#4#38 +711 x#4#39 +510 x#4#40 +842 x#4#41 +336 x#4#42
  +264 x#4#43 +304 x#4#44 +124 x#4#45 +228 x#4#46 +927 x#4#47 +439 x#4#48
  +97 x#4#49 +646 x#4#50 +458 x#5#1 +170 x#5#2 +387 x#5#3 +668 x#5#4
  +744 x#5#5 +839 x#5#6 +857 x#5#7 +508 x#5#8 +250 x#5#9 +618 x#5#10
  +40 x#5#11 +295 x#5#12 +148 x#5#13 +938 x#5#14 +215 x#5#15 +233 x#5#16
  +960 x#5#17 +492 x#5#18 +881 x#5#19 +795 x#5#20 +391 x#5#21 +751 x#5#22
  +735 x#5#23 +81 x#5#24 +670 x#5#25 +652 x#5#26 +879 x#5#27 +111 x#5#28
  +711 x#5#29 +115 x#5#30 +369 x#5#31 +997 x#5#32 +490 x#5#33 +688 x#5#34
  +242 x#5#35 +243 x#5#36 +367 x#5#37 +4 x#5#38 +711 x#5#39 +510 x#5#40
  +842 x#5#41 +336 x#5#42 +264 x#5#43 +304 x#5#44 +124 x#5#45 +228 x#5#46
  +927 x#5#47 +439 x#5#48 +97 x#5#49 +646 x#5#50 +458 x#6#1 +170 x#6#2
  +387 x#6#3 +668 x#6#4 +744 x#6#5 +839 x#6#6 +857 x#6#7 +508 x#6#8
  +250 x#6#9 +618 x#6#10 +40 x#6#11 +295 x#6#12 +148 x#6#13 +938 x#6#14
  +215 x#6#15 +233 x#6#16 +960 x#6#17 +492 x#6#18 +881 x#6#19 +795 x#6#20
  +391 x#6#21 +751 x#6#22 +735 x#6#23 +81 x#6#24 +670 x#6#25 +652 x#6#26
  +879 x#6#27 +111 x#6#28 +711 x#6#29 +115 x#6#30 +369 x#6#31 +997 x#6#32
  +490 x#6#33 +688 x#6#34 +242 x#6#35 +243 x#6#36 +367 x#6#37 +4 x#6#38
  +711 x#6#39 +510 x#6#40 +842 x#6#41 +336 x#6#42 +264 x#6#43 +304 x#6#44
  +124 x#6#45 +228 x#6#46 +927 x#6#47 +439 x#6#48 +97 x#6#49 +646 x#6#50
  +458 x#7#1 +170 x#7#2 +387 x#7#3 +668 x#7#4 +744 x#7#5 +839 x#7#6
  +857 x#7#7 +508 x#7#8 +250 x#7#9 +618 x#7#10 +40 x#7#11 +295 x#7#12
  +148 x#7#13 +938 x#7#14 +215 x#7#15 +233 x#7#16 +960 x#7#17 +492 x#7#18
  +881 x#7#19 +795 x#7#20 +391 x#7#21 +751 x#7#22 +735 x#7#23 +81 x#7#24
  +670 x#7#25 +652 x#7#26 +879 x#7#27 +111 x#7#28 +711 x#7#29 +115 x#7#30
  +369 x#7#31 +997 x#7#32 +490 x#7#33 +688 x#7#34 +242 x#7#35 +243 x#7#36
  +367 x#7#37 +4 x#7#38 +711 x#7#39 +510 x#7#40 +842 x#7#41 +336 x#7#42
  +264 x#7#43 +304 x#7#44 +124 x#7#45 +228 x#7#46 +927 x#7#47 +439 x#7#48
  +97 x#7#49 +646 x#7#50 +458 x#8#1 +170 x#8#2 +387 x#8#3 +668 x#8#4
  +744 x#8#5 +839 x#8#6 +857 x#8#7 +508 x#8#8 +250 x#8#9 +618 x#8#10
  +40 x#8#11 +295 x#8#12 +148 x#8#13 +938 x#8#14 +215 x#8#15 +233 x#8#16
  +960 x#8#17 +492 x#8#18 +881 x#8#19 +795 x#8#20 +391 x#8#21 +751 x#8#22
  +735 x#8#23 +81 x#8#24 +670 x#8#25 +652 x#8#26 +879 x#8#27 +111 x#8#28
  +711 x#8#29 +115 x#8#30 +369 x#8#31 +997 x#8#32 +490 x#8#33 +688 x#8#34
  +242 x#8#35 +243 x#8#36 +367 x#8#37 +4 x#8#38 +711 x#8#39 +510 x#8#40
  +842 x#8#41 +336 x#8#42 +264 x#8#43 +304 x#8#44 +124 x#8#45 +228 x#8#46
  +927 x#8#47 +439 x#8#48 +97 x#8#49 +646 x#8#50 +458 x#9#1 +170 x#9#2
  +387 x#9#3 +668 x#9#4 +744 x#9#5 +839 x#9#6 +857 x#9#7 +508 x#9#8
  +250 x#9#9 +618 x#9#10 +40 x#9#11 +295 x#9#12 +148 x#9#13 +938 x#9#14
  +215 x#9#15 +233 x#9#16 +960 x#9#17 +492 x#9#18 +881 x#9#19 +795 x#9#20
  +391 x#9#21 +751 x#9#22 +735 x#9#23 +81 x#9#24 +670 x#9#25 +652 x#9#26
  +879 x#9#27 +111 x#9#28 +711 x#9#29 +115 x#9#30 +369 x#9#31 +997 x#9#32
  +490 x#9#33 +688 x#9#34 +242 x#9#35 +243 x#9#36 +367 x#9#37 +4 x#9#38
  +711 x#9#39 +510 x#9#40 +842 x#9#41 +336 x#9#42 +264 x#9#43 +304 x#9#44
  +124 x#9#45 +228 x#9#46 +927 x#9#47 +439 x#9#48 +97 x#9#49 +646 x#9#50
  +458 x#10#1 +170 x#10#2 +387 x#10#3 +668 x#10#4 +744 x#10#5 +839 x#10#6
  +857 x#10#7 +508 x#10#8 +250 x#10#9 +618 x#10#10 +40 x#10#11 +295 x#10#12
  +148 x#10#13 +938 x#10#14 +215 x#10#15 +233 x#10#16 +960 x#10#17 +492 x#10#18
  +881 x#10#19 +795 x#10#20 +391 x#10#21 +751 x#10#22 +735 x#10#23 +81 x#10#24
  +670 x#10#25 +652 x#10#26 +879 x#10#27 +111 x#10#28 +711 x#10#29 +115 x#10#30
  +369 x#10#31 +997 x#10#32 +490 x#10#33 +688 x#10#34 +242 x#10#35 +243 x#10#36
  +367 x#10#37 +4 x#10#38 +711 x#10#39 +510 x#10#40 +842 x#10#41 +336 x#10#42
  +264 x#10#43 +304 x#10#44 +124 x#10#45 +228 x#10#46 +927 x#10#47 +439 x#10#48
  +97 x#10#49 +646 x#10#50
Subject to
 cap_1:
  +101 x#1#50 +261 x#1#49 +863 x#1#48 +625 x#1#47 +351 x#1#46 +908 x#1#45
  +281 x#1#44 +663 x#1#43 +953 x#1#42 +146 x#1#41 +790 x#1#40 +646 x#1#39
  +233 x#1#38 +346 x#1#37 +519 x#1#36 +68 x#1#35 +494 x#1#34 +428 x#1#33
  +503 x#1#32 +967 x#1#31 +512 x#1#30 +887 x#1#29 +180 x#1#28 +922 x#1#27
  +724 x#1#26 +584 x#1#25 +112 x#1#24 +497 x#1#23 +222 x#1#22 +870 x#1#21
  +909 x#1#20 +146 x#1#19 +280 x#1#18 +828 x#1#17 +414 x#1#16 +602 x#1#15
  +624 x#1#14 +394 x#1#13 +617 x#1#12 +89 x#1#11 +488 x#1#10 +985 x#1#9
  +177 x#1#8 +443 x#1#7 +862 x#1#6 +425 x#1#5 +66 x#1#4 +228 x#1#3
  +771 x#1#2 +417 x#1#1 <= 742
 cap_2:
  +19 x#1#50 +236 x#1#49 +30 x#1#48 +632 x#1#47 +212 x#1#46 +954 x#1#45
  +108 x#1#44 +723 x#1#43 +240 x#1#42 +269 x#1#41 +430 x#1#40 +802 x#1#39
  +852 x#1#38 +888 x#1#37 +76 x#1#36 +965 x#1#35 +729 x#1#34 +821 x#1#33
  +240 x#1#32 +512 x#1#31 +210 x#1#30 +825 x#1#29 +703 x#1#28 +227 x#1#27
  +987 x#1#26 +207 x#1#25 +704 x#1#24 +393 x#1#23 +891 x#1#22 +710 x#1#21
  +273 x#1#20 +910 x#1#19 +382 x#1#18 +622 x#1#17 +385 x#1#16 +137 x#1#15
  +450 x#1#14 +132 x#1#13 +181 x#1#12 +400 x#1#11 +884 x#1#10 +78 x#1#9
  +850 x#1#8 +353 x#1#7 +870 x#1#6 +538 x#1#5 +316 x#1#4 +278 x#1#3
  +807 x#1#2 +40 x#1#1 <= 563
 cap_3:
  +101 x#2#50 +261 x#2#49 +863 x#2#48 +625 x#2#47 +351 x#2#46 +908 x#2#45
  +281 x#2#44 +663 x#2#43 +953 x#2#42 +146 x#2#41 +790 x#2#40 +646 x#2#39
  +233 x#2#38 +346 x#2#37 +519 x#2#36 +68 x#2#35 +494 x#2#34 +428 x#2#33
  +503 x#2#32 +967 x#2#31 +512 x#2#30 +887 x#2#29 +180 x#2#28 +922 x#2#27
  +724 x#2#26 +584 x#2#25 +112 x#2#24 +497 x#2#23 +222 x#2#22 +870 x#2#21
  +909 x#2#20 +146 x#2#19 +280 x#2#18 +828 x#2#17 +414 x#2#16 +602 x#2#15
  +624 x#2#14 +394 x#2#13 +617 x#2#12 +89 x#2#11 +488 x#2#10 +985 x#2#9
  +177 x#2#8 +443 x#2#7 +862 x#2#6 +425 x#2#5 +66 x#2#4 +228 x#2#3
  +771 x#2#2 +417 x#2#1 <= 854
 cap_4:
  +19 x#2#50 +236 x#2#49 +30 x#2#48 +632 x#2#47 +212 x#2#46 +954 x#2#45
  +108 x#2#44 +723 x#2#43 +240 x#2#42 +269 x#2#41 +430 x#2#40 +802 x#2#39
  +852 x#2#38 +888 x#2#37 +76 x#2#36 +965 x#2#35 +729 x#2#34 +821 x#2#33
  +240 x#2#32 +512 x#2#31 +210 x#2#30 +825 x#2#29 +703 x#2#28 +227 x#2#27
  +987 x#2#26 +207 x#2#25 +704 x#2#24 +393 x#2#23 +891 x#2#22 +710 x#2#21
  +273 x#2#20 +910 x#2#19 +382 x#2#18 +622 x#2#17 +385 x#2#16 +137 x#2#15
  +450 x#2#14 +132 x#2#13 +181 x#2#12 +400 x#2#11 +884 x#2#10 +78 x#2#9
  +850 x#2#8 +353 x#2#7 +870 x#2#6 +538 x#2#5 +316 x#2#4 +278 x#2#3
  +807 x#2#2 +40 x#2#1 <= 940
 cap_5:
  +101 x#3#50 +261 x#3#49 +863 x#3#48 +625 x#3#47 +351 x#3#46 +908 x#3#45
  +281 x#3#44 +663 x#3#43 +953 x#3#42 +146 x#3#41 +790 x#3#40 +646 x#3#39
  +233 x#3#38 +346 x#3#37 +519 x#3#36 +68 x#3#35 +494 x#3#34 +428 x#3#33
  +503 x#3#32 +967 x#3#31 +512 x#3#30 +887 x#3#29 +180 x#3#28 +922 x#3#27
  +724 x#3#26 +584 x#3#25 +112 x#3#24 +497 x#3#23 +222 x#3#22 +870 x#3#21
  +909 x#3#20 +146 x#3#19 +280 x#3#18 +828 x#3#17 +414 x#3#16 +602 x#3#15
  +624 x#3#14 +394 x#3#13 +617 x#3#12 +89 x#3#11 +488 x#3#10 +985 x#3#9
  +177 x#3#8 +443 x#3#7 +862 x#3#6 +425 x#3#5 +66 x#3#4 +228 x#3#3
  +771 x#3#2 +417 x#3#1 <= 836
 cap_6:
  +19 x#3#50 +236 x#3#49 +30 x#3#48 +632 x#3#47 +212 x#3#46 +954 x#3#45
  +108 x#3#44 +723 x#3#43 +240 x#3#42 +269 x#3#41 +430 x#3#40 +802 x#3#39
  +852 x#3#38 +888 x#3#37 +76 x#3#36 +965 x#3#35 +729 x#3#34 +821 x#3#33
  +240 x#3#32 +512 x#3#31 +210 x#3#30 +825 x#3#29 +703 x#3#28 +227 x#3#27
  +987 x#3#26 +207 x#3#25 +704 x#3#24 +393 x#3#23 +891 x#3#22 +710 x#3#21
  +273 x#3#20 +910 x#3#19 +382 x#3#18 +622 x#3#17 +385 x#3#16 +137 x#3#15
  +450 x#3#14 +132 x#3#13 +181 x#3#12 +400 x#3#11 +884 x#3#10 +78 x#3#9
  +850 x#3#8 +353 x#3#7 +870 x#3#6 +538 x#3#5 +316 x#3#4 +278 x#3#3
  +807 x#3#2 +40 x#3#1 <= 794
 cap_7:
  +101 x#4#50 +261 x#4#49 +863 x#4#48 +625 x#4#47 +351 x#4#46 +908 x#4#45
  +281 x#4#44 +663 x#4#43 +953 x#4#42 +146 x#4#41 +790 x#4#40 +646 x#4#39
  +233 x#4#38 +346 x#4#37 +519 x#4#36 +68 x#4#35 +494 x#4#34 +428 x#4#33
  +503 x#4#32 +967 x#4#31 +512 x#4#30 +887 x#4#29 +180 x#4#28 +922 x#4#27
  +724 x#4#26 +584 x#4#25 +112 x#4#24 +497 x#4#23 +222 x#4#22 +870 x#4#21
  +909 x#4#20 +146 x#4#19 +280 x#4#18 +828 x#4#17 +414 x#4#16 +602 x#4#15
  +624 x#4#14 +394 x#4#13 +617 x#4#12 +89 x#4#11 +488 x#4#10 +985 x#4#9
  +177 x#4#8 +443 x#4#7 +862 x#4#6 +425 x#4#5 +66 x#4#4 +228 x#4#3
  +771 x#4#2 +417 x#4#1 <= 879
 cap_8:
  +19 x#4#50 +236 x#4#49 +30 x#4#48 +632 x#4#47 +212 x#4#46 +954 x#4#45
  +108 x#4#44 +723 x#4#43 +240 x#4#42 +269 x#4#41 +430 x#4#40 +802 x#4#39
  +852 x#4#38 +888 x#4#37 +76 x#4#36 +965 x#4#35 +729 x#4#34 +821 x#4#33
  +240 x#4#32 +512 x#4#31 +210 x#4#30 +825 x#4#29 +703 x#4#28 +227 x#4#27
  +987 x#4#26 +207 x#4#25 +704 x#4#24 +393 x#4#23 +891 x#4#22 +710 x#4#21
  +273 x#4#20 +910 x#4#19 +382 x#4#18 +622 x#4#17 +385 x#4#16 +137 x#4#15
  +450 x#4#14 +132 x#4#13 +181 x#4#12 +400 x#4#11 +884 x#4#10 +78 x#4#9
  +850 x#4#8 +353 x#4#7 +870 x#4#6 +538 x#4#5 +316 x#4#4 +278 x#4#3
  +807 x#4#2 +40 x#4#1 <= 754
 cap_9:
  +101 x#5#50 +261 x#5#49 +863 x#5#48 +625 x#5#47 +351 x#5#46 +908 x#5#45
  +281 x#5#44 +663 x#5#43 +953 x#5#42 +146 x#5#41 +790 x#5#40 +646 x#5#39
  +233 x#5#38 +346 x#5#37 +519 x#5#36 +68 x#5#35 +494 x#5#34 +428 x#5#33
  +503 x#5#32 +967 x#5#31 +512 x#5#30 +887 x#5#29 +180 x#5#28 +922 x#5#27
  +724 x#5#26 +584 x#5#25 +112 x#5#24 +497 x#5#23 +222 x#5#22 +870 x#5#21
  +909 x#5#20 +146 x#5#19 +280 x#5#18 +828 x#5#17 +414 x#5#16 +602 x#5#15
  +624 x#5#14 +394 x#5#13 +617 x#5#12 +89 x#5#11 +488 x#5#10 +985 x#5#9
  +177 x#5#8 +443 x#5#7 +862 x#5#6 +425 x#5#5 +66 x#5#4 +228 x#5#3
  +771 x#5#2 +417 x#5#1 <= 713
 cap_10:
  +19 x#5#50 +236 x#5#49 +30 x#5#48 +632 x#5#47 +212 x#5#46 +954 x#5#45
  +108 x#5#44 +723 x#5#43 +240 x#5#42 +269 x#5#41 +430 x#5#40 +802 x#5#39
  +852 x#5#38 +888 x#5#37 +76 x#5#36 +965 x#5#35 +729 x#5#34 +821 x#5#33
  +240 x#5#32 +512 x#5#31 +210 x#5#30 +825 x#5#29 +703 x#5#28 +227 x#5#27
  +987 x#5#26 +207 x#5#25 +704 x#5#24 +393 x#5#23 +891 x#5#22 +710 x#5#21
  +273 x#5#20 +910 x#5#19 +382 x#5#18 +622 x#5#17 +385 x#5#16 +137 x#5#15
  +450 x#5#14 +132 x#5#13 +181 x#5#12 +400 x#5#11 +884 x#5#10 +78 x#5#9
  +850 x#5#8 +353 x#5#7 +870 x#5#6 +538 x#5#5 +316 x#5#4 +278 x#5#3
  +807 x#5#2 +40 x#5#1 <= 779
 cap_11:
  +101 x#6#50 +261 x#6#49 +863 x#6#48 +625 x#6#47 +351 x#6#46 +908 x#6#45
  +281 x#6#44 +663 x#6#43 +953 x#6#42 +146 x#6#41 +790 x#6#40 +646 x#6#39
  +233 x#6#38 +346 x#6#37 +519 x#6#36 +68 x#6#35 +494 x#6#34 +428 x#6#33
  +503 x#6#32 +967 x#6#31 +512 x#6#30 +887 x#6#29 +180 x#6#28 +922 x#6#27
  +724 x#6#26 +584 x#6#25 +112 x#6#24 +497 x#6#23 +222 x#6#22 +870 x#6#21
  +909 x#6#20 +146 x#6#19 +280 x#6#18 +828 x#6#17 +414 x#6#16 +602 x#6#15
  +624 x#6#14 +394 x#6#13 +617 x#6#12 +89 x#6#11 +488 x#6#10 +985 x#6#9
  +177 x#6#8 +443 x#6#7 +862 x#6#6 +425 x#6#5 +66 x#6#4 +228 x#6#3
  +771 x#6#2 +417 x#6#1 <= 958
 cap_12:
  +19 x#6#50 +236 x#6#49 +30 x#6#48 +632 x#6#47 +212 x#6#46 +954 x#6#45
  +108 x#6#44 +723 x#6#43 +240 x#6#42 +269 x#6#41 +430 x#6#40 +802 x#6#39
  +852 x#6#38 +888 x#6#37 +76 x#6#36 +965 x#6#35 +729 x#6#34 +821 x#6#33
  +240 x#6#32 +512 x#6#31 +210 x#6#30 +825 x#6#29 +703 x#6#28 +227 x#6#27
  +987 x#6#26 +207 x#6#25 +704 x#6#24 +393 x#6#23 +891 x#6#22 +710 x#6#21
  +273 x#6#20 +910 x#6#19 +382 x#6#18 +622 x#6#17 +385 x#6#16 +137 x#6#15
  +450 x#6#14 +132 x#6#13 +181 x#6#12 +400 x#6#11 +884 x#6#10 +78 x#6#9
  +850 x#6#8 +353 x#6#7 +870 x#6#6 +538 x#6#5 +316 x#6#4 +278 x#6#3
  +807 x#6#2 +40 x#6#1 <= 809
 cap_13:
  +101 x#7#50 +261 x#7#49 +863 x#7#48 +625 x#7#47 +351 x#7#46 +908 x#7#45
  +281 x#7#44 +663 x#7#43 +953 x#7#42 +146 x#7#41 +790 x#7#40 +646 x#7#39
  +233 x#7#38 +346 x#7#37 +519 x#7#36 +68 x#7#35 +494 x#7#34 +428 x#7#33
  +503 x#7#32 +967 x#7#31 +512 x#7#30 +887 x#7#29 +180 x#7#28 +922 x#7#27
  +724 x#7#26 +584 x#7#25 +112 x#7#24 +497 x#7#23 +222 x#7#22 +870 x#7#21
  +909 x#7#20 +146 x#7#19 +280 x#7#18 +828 x#7#17 +414 x#7#16 +602 x#7#15
  +624 x#7#14 +394 x#7#13 +617 x#7#12 +89 x#7#11 +488 x#7#10 +985 x#7#9
  +177 x#7#8 +443 x#7#7 +862 x#7#6 +425 x#7#5 +66 x#7#4 +228 x#7#3
  +771 x#7#2 +417 x#7#1 <= 582
 cap_14:
  +19 x#7#50 +236 x#7#49 +30 x#7#48 +632 x#7#47 +212 x#7#46 +954 x#7#45
  +108 x#7#44 +723 x#7#43 +240 x#7#42 +269 x#7#41 +430 x#7#40 +802 x#7#39
  +852 x#7#38 +888 x#7#37 +76 x#7#36 +965 x#7#35 +729 x#7#34 +821 x#7#33
  +240 x#7#32 +512 x#7#31 +210 x#7#30 +825 x#7#29 +703 x#7#28 +227 x#7#27
  +987 x#7#26 +207 x#7#25 +704 x#7#24 +393 x#7#23 +891 x#7#22 +710 x#7#21
  +273 x#7#20 +910 x#7#19 +382 x#7#18 +622 x#7#17 +385 x#7#16 +137 x#7#15
  +450 x#7#14 +132 x#7#13 +181 x#7#12 +400 x#7#11 +884 x#7#10 +78 x#7#9
  +850 x#7#8 +353 x#7#7 +870 x#7#6 +538 x#7#5 +316 x#7#4 +278 x#7#3
  +807 x#7#2 +40 x#7#1 <= 541
 cap_15:
  +101 x#8#50 +261 x#8#49 +863 x#8#48 +625 x#8#47 +351 x#8#46 +908 x#8#45
  +281 x#8#44 +663 x#8#43 +953 x#8#42 +146 x#8#41 +790 x#8#40 +646 x#8#39
  +233 x#8#38 +346 x#8#37 +519 x#8#36 +68 x#8#35 +494 x#8#34 +428 x#8#33
  +503 x#8#32 +967 x#8#31 +512 x#8#30 +887 x#8#29 +180 x#8#28 +922 x#8#27
  +724 x#8#26 +584 x#8#25 +112 x#8#24 +497 x#8#23 +222 x#8#22 +870 x#8#21
  +909 x#8#20 +146 x#8#19 +280 x#8#18 +828 x#8#17 +414 x#8#16 +602 x#8#15
  +624 x#8#14 +394 x#8#13 +617 x#8#12 +89 x#8#11 +488 x#8#10 +985 x#8#9
  +177 x#8#8 +443 x#8#7 +862 x#8#6 +425 x#8#5 +66 x#8#4 +228 x#8#3
  +771 x#8#2 +417 x#8#1 <= 776
 cap_16:
  +19 x#8#50 +236 x#8#49 +30 x#8#48 +632 x#8#47 +212 x#8#46 +954 x#8#45
  +108 x#8#44 +723 x#8#43 +240 x#8#42 +269 x#8#41 +430 x#8#40 +802 x#8#39
  +852 x#8#38 +888 x#8#37 +76 x#8#36 +965 x#8#35 +729 x#8#34 +821 x#8#33
  +240 x#8#32 +512 x#8#31 +210 x#8#30 +825 x#8#29 +703 x#8#28 +227 x#8#27
  +987 x#8#26 +207 x#8#25 +704 x#8#24 +393 x#8#23 +891 x#8#22 +710 x#8#21
  +273 x#8#20 +910 x#8#19 +382 x#8#18 +622 x#8#17 +385 x#8#16 +137 x#8#15
  +450 x#8#14 +132 x#8#13 +181 x#8#12 +400 x#8#11 +884 x#8#10 +78 x#8#9
  +850 x#8#8 +353 x#8#7 +870 x#8#6 +538 x#8#5 +316 x#8#4 +278 x#8#3
  +807 x#8#2 +40 x#8#1 <= 927
 cap_17:
  +101 x#9#50 +261 x#9#49 +863 x#9#48 +625 x#9#47 +351 x#9#46 +908 x#9#45
  +281 x#9#44 +663 x#9#43 +953 x#9#42 +146 x#9#41 +790 x#9#40 +646 x#9#39
  +233 x#9#38 +346 x#9#37 +519 x#9#36 +68 x#9#35 +494 x#9#34 +428 x#9#33
  +503 x#9#32 +967 x#9#31 +512 x#9#30 +887 x#9#29 +180 x#9#28 +922 x#9#27
  +724 x#9#26 +584 x#9#25 +112 x#9#24 +497 x#9#23 +222 x#9#22 +870 x#9#21
  +909 x#9#20 +146 x#9#19 +280 x#9#18 +828 x#9#17 +414 x#9#16 +602 x#9#15
  +624 x#9#14 +394 x#9#13 +617 x#9#12 +89 x#9#11 +488 x#9#10 +985 x#9#9
  +177 x#9#8 +443 x#9#7 +862 x#9#6 +425 x#9#5 +66 x#9#4 +228 x#9#3
  +771 x#9#2 +417 x#9#1 <= 898
 cap_18:
  +19 x#9#50 +236 x#9#49 +30 x#9#48 +632 x#9#47 +212 x#9#46 +954 x#9#45
  +108 x#9#44 +723 x#9#43 +240 x#9#42 +269 x#9#41 +430 x#9#40 +802 x#9#39
  +852 x#9#38 +888 x#9#37 +76 x#9#36 +965 x#9#35 +729 x#9#34 +821 x#9#33
  +240 x#9#32 +512 x#9#31 +210 x#9#30 +825 x#9#29 +703 x#9#28 +227 x#9#27
  +987 x#9#26 +207 x#9#25 +704 x#9#24 +393 x#9#23 +891 x#9#22 +710 x#9#21
  +273 x#9#20 +910 x#9#19 +382 x#9#18 +622 x#9#17 +385 x#9#16 +137 x#9#15
  +450 x#9#14 +132 x#9#13 +181 x#9#12 +400 x#9#11 +884 x#9#10 +78 x#9#9
  +850 x#9#8 +353 x#9#7 +870 x#9#6 +538 x#9#5 +316 x#9#4 +278 x#9#3
  +807 x#9#2 +40 x#9#1 <= 738
 cap_19:
  +101 x#10#50 +261 x#10#49 +863 x#10#48 +625 x#10#47 +351 x#10#46 +908 x#10#45
  +281 x#10#44 +663 x#10#43 +953 x#10#42 +146 x#10#41 +790 x#10#40 +646 x#10#39
  +233 x#10#38 +346 x#10#37 +519 x#10#36 +68 x#10#35 +494 x#10#34 +428 x#10#33
  +503 x#10#32 +967 x#10#31 +512 x#10#30 +887 x#10#29 +180 x#10#28 +922 x#10#27
  +724 x#10#26 +584 x#10#25 +112 x#10#24 +497 x#10#23 +222 x#10#22 +870 x#10#21
  +909 x#10#20 +146 x#10#19 +280 x#10#18 +828 x#10#17 +414 x#10#16 +602 x#10#15
  +624 x#10#14 +394 x#10#13 +617 x#10#12 +89 x#10#11 +488 x#10#10 +985 x#10#9
  +177 x#10#8 +443 x#10#7 +862 x#10#6 +425 x#10#5 +66 x#10#4 +228 x#10#3
  +771 x#10#2 +417 x#10#1 <= 5455
 cap_20:
  +19 x#10#50 +236 x#10#49 +30 x#10#48 +632 x#10#47 +212 x#10#46 +954 x#10#45
  +108 x#10#44 +723 x#10#43 +240 x#10#42 +269 x#10#41 +430 x#10#40 +802 x#10#39
  +852 x#10#38 +888 x#10#37 +76 x#10#36 +965 x#10#35 +729 x#10#34 +821 x#10#33
  +240 x#10#32 +512 x#10#31 +210 x#10#30 +825 x#10#29 +703 x#10#28 +227 x#10#27
  +987 x#10#26 +207 x#10#25 +704 x#10#24 +393 x#10#23 +891 x#10#22 +710 x#10#21
  +273 x#10#20 +910 x#10#19 +382 x#10#18 +622 x#10#17 +385 x#10#16 +137 x#10#15
  +450 x#10#14 +132 x#10#13 +181 x#10#12 +400 x#10#11 +884 x#10#10 +78 x#10#9
  +850 x#10#8 +353 x#10#7 +870 x#10#6 +538 x#10#5 +316 x#10#4 +278 x#10#3
  +807 x#10#2 +40 x#10#1 <= 5291
 one_1:
  + x#10#1 + x#9#1 + x#8#1 + x#7#1 + x#6#1 + x#5#1
  + x#4#1 + x#3#1 + x#2#1 + x#1#1 <= 1
 one_2:
  + x#10#2 + x#9#2 + x#8#2 + x#7#2 + x#6#2 + x#5#2
  + x#4#2 + x#3#2 + x#2#2 + x#1#2 <= 1
 one_3:
  + x#10#3 + x#9#3 + x#8#3 + x#7#3 + x#6#3 + x#5#3
  + x#4#3 + x#3#3 + x#2#3 + x#1#3 <= 1
 one_4:
  + x#10#4 + x#9#4 + x#8#4 + x#7#4 + x#6#4 + x#5#4
  + x#4#4 + x#3#4 + x#2#4 + x#1#4 <= 1
 one_5:
  + x#10#5 + x#9#5 + x#8#5 + x#7#5 + x#6#5 + x#5#5
  + x#4#5 + x#3#5 + x#2#5 + x#1#5 <= 1
 one_6:
  + x#10#6 + x#9#6 + x#8#6 + x#7#6 + x#6#6 + x#5#6
  + x#4#6 + x#3#6 + x#2#6 + x#1#6 <= 1
 one_7:
  + x#10#7 + x#9#7 + x#8#7 + x#7#7 + x#6#7 + x#5#7
  + x#4#7 + x#3#7 + x#2#7 + x#1#7 <= 1
 one_8:
  + x#10#8 + x#9#8 + x#8#8 + x#7#8 + x#6#8 + x#5#8
  + x#4#8 + x#3#8 + x#2#8 + x#1#8 <= 1
 one_9:
  + x#10#9 + x#9#9 + x#8#9 + x#7#9 + x#6#9 + x#5#9
  + x#4#9 + x#3#9 + x#2#9 + x#1#9 <= 1
 one_10:
  + x#10#10 + x#9#10 + x#8#10 + x#7#10 + x#6#10 + x#5#10
  + x#4#10 + x#3#10 + x#2#10 + x#1#10 <= 1
 one_11:
  + x#10#11 + x#9#11 + x#8#11 + x#7#11 + x#6#11 + x#5#11
  + x#4#11 + x#3#11 + x#2#11 + x#1#11 <= 1
 one_12:
  + x#10#12 + x#9#12 + x#8#12 + x#7#12 + x#6#12 + x#5#12
  + x#4#12 + x#3#12 + x#2#12 + x#1#12 <= 1
 one_13:
  + x#10#13 + x#9#13 + x#8#13 + x#7#13 + x#6#13 + x#5#13
  + x#4#13 + x#3#13 + x#2#13 + x#1#13 <= 1
 one_14:
  + x#10#14 + x#9#14 + x#8#14 + x#7#14 + x#6#14 + x#5#14
  + x#4#14 + x#3#14 + x#2#14 + x#1#14 <= 1
 one_15:
  + x#10#15 + x#9#15 + x#8#15 + x#7#15 + x#6#15 + x#5#15
  + x#4#15 + x#3#15 + x#2#15 + x#1#15 <= 1
 one_16:
  + x#10#16 + x#9#16 + x#8#16 + x#7#16 + x#6#16 + x#5#16
  + x#4#16 + x#3#16 + x#2#16 + x#1#16 <= 1
 one_17:
  + x#10#17 + x#9#17 + x#8#17 + x#7#17 + x#6#17 + x#5#17
  + x#4#17 + x#3#17 + x#2#17 + x#1#17 <= 1
 one_18:
  + x#10#18 + x#9#18 + x#8#18 + x#7#18 + x#6#18 + x#5#18
  + x#4#18 + x#3#18 + x#2#18 + x#1#18 <= 1
 one_19:
  + x#10#19 + x#9#19 + x#8#19 + x#7#19 + x#6#19 + x#5#19
  + x#4#19 + x#3#19 + x#2#19 + x#1#19 <= 1
 one_20:
  + x#10#20 + x#9#20 + x#8#20 + x#7#20 + x#6#20 + x#5#20
  + x#4#20 + x#3#20 + x#2#20 + x#1#20 <= 1
 one_21:
  + x#10#21 + x#9#21 + x#8#21 + x#7#21 + x#6#21 + x#5#21
  + x#4#21 + x#3#21 + x#2#21 + x#1#21 <= 1
 one_22:
  + x#10#22 + x#9#22 + x#8#22 + x#7#22 + x#6#22 + x#5#22
  + x#4#22 + x#3#22 + x#2#22 + x#1#22 <= 1
 one_23:
  + x#10#23 + x#9#23 + x#8#23 + x#7#23 + x#6#23 + x#5#23
  + x#4#23 + x#3#23 + x#2#23 + x#1#23 <= 1
 one_24:
  + x#10#24 + x#9#24 + x#8#24 + x#7#24 + x#6#24 + x#5#24
  + x#4#24 + x#3#24 + x#2#24 + x#1#24 <= 1
 one_25:
  + x#10#25 + x#9#25 + x#8#25 + x#7#25 + x#6#25 + x#5#25
  + x#4#25 + x#3#25 + x#2#25 + x#1#25 <= 1
 one_26:
  + x#10#26 + x#9#26 + x#8#26 + x#7#26 + x#6#26 + x#5#26
  + x#4#26 + x#3#26 + x#2#26 + x#1#26 <= 1
 one_27:
  + x#10#27 + x#9#27 + x#8#27 + x#7#27 + x#6#27 + x#5#27
  + x#4#27 + x#3#27 + x#2#27 + x#1#27 <= 1
 one_28:
  + x#10#28 + x#9#28 + x#8#28 + x#7#28 + x#6#28 + x#5#28
  + x#4#28 + x#3#28 + x#2#28 + x#1#28 <= 1
 one_29:
  + x#10#29 + x#9#29 + x#8#29 + x#7#29 + x#6#29 + x#5#29
  + x#4#29 + x#3#29 + x#2#29 + x#1#29 <= 1
 one_30:
  + x#10#30 + x#9#30 + x#8#30 + x#7#30 + x#6#30 + x#5#30
  + x#4#30 + x#3#30 + x#2#30 + x#1#30 <= 1
 one_31:
  + x#10#31 + x#9#31 + x#8#31 + x#7#31 + x#6#31 + x#5#31
  + x#4#31 + x#3#31 + x#2#31 + x#1#31 <= 1
 one_32:
  + x#10#32 + x#9#32 + x#8#32 + x#7#32 + x#6#32 + x#5#32
  + x#4#32 + x#3#32 + x#2#32 + x#1#32 <= 1
 one_33:
  + x#10#33 + x#9#33 + x#8#33 + x#7#33 + x#6#33 + x#5#33
  + x#4#33 + x#3#33 + x#2#33 + x#1#33 <= 1
 one_34:
  + x#10#34 + x#9#34 + x#8#34 + x#7#34 + x#6#34 + x#5#34
  + x#4#34 + x#3#34 + x#2#34 + x#1#34 <= 1
 one_35:
  + x#10#35 + x#9#35 + x#8#35 + x#7#35 + x#6#35 + x#5#35
  + x#4#35 + x#3#35 + x#2#35 + x#1#35 <= 1
 one_36:
  + x#10#36 + x#9#36 + x#8#36 + x#7#36 + x#6#36 + x#5#36
  + x#4#36 + x#3#36 + x#2#36 + x#1#36 <= 1
 one_37:
  + x#10#37 + x#9#37 + x#8#37 + x#7#37 + x#6#37 + x#5#37
  + x#4#37 + x#3#37 + x#2#37 + x#1#37 <= 1
 one_38:
  + x#10#38 + x#9#38 + x#8#38 + x#7#38 + x#6#38 + x#5#38
  + x#4#38 + x#3#38 + x#2#38 + x#1#38 <= 1
 one_39:
  + x#10#39 + x#9#39 + x#8#39 + x#7#39 + x#6#39 + x#5#39
  + x#4#39 + x#3#39 + x#2#39 + x#1#39 <= 1
 one_40:
  + x#10#40 + x#9#40 + x#8#40 + x#7#40 + x#6#40 + x#5#40
  + x#4#40 + x#3#40 + x#2#40 + x#1#40 <= 1
 one_41:
  + x#10#41 + x#9#41 + x#8#41 + x#7#41 + x#6#41 + x#5#41
  + x#4#41 + x#3#41 + x#2#41 + x#1#41 <= 1
 one_42:
  + x#10#42 + x#9#42 + x#8#42 + x#7#42 + x#6#42 + x#5#42
  + x#4#42 + x#3#42 + x#2#42 + x#1#42 <= 1
 one_43:
  + x#10#43 + x#9#43 + x#8#43 + x#7#43 + x#6#43 + x#5#43
  + x#4#43 + x#3#43 + x#2#43 + x#1#43 <= 1
 one_44:
  + x#10#44 + x#9#44 + x#8#44 + x#7#44 + x#6#44 + x#5#44
  + x#4#44 + x#3#44 + x#2#44 + x#1#44 <= 1
 one_45:
  + x#10#45 + x#9#45 + x#8#45 + x#7#45 + x#6#45 + x#5#45
  + x#4#45 + x#3#45 + x#2#45 + x#1#45 <= 1
 one_46:
  + x#10#46 + x#9#46 + x#8#46 + x#7#46 + x#6#46 + x#5#46
  + x#4#46 + x#3#46 + x#2#46 + x#1#46 <= 1
 one_47:
  + x#10#47 + x#9#47 + x#8#47 + x#7#47 + x#6#47 + x#5#47
  + x#4#47 + x#3#47 + x#2#47 + x#1#47 <= 1
 one_48:
  + x#10#48 + x#9#48 + x#8#48 + x#7#48 + x#6#48 + x#5#48
  + x#4#48 + x#3#48 + x#2#48 + x#1#48 <= 1
 one_49:
  + x#10#49 + x#9#49 + x#8#49 + x#7#49 + x#6#49 + x#5#49
  + x#4#49 + x#3#49 + x#2#49 + x#1#49 <= 1
 one_50:
  + x#10#50 + x#9#50 + x#8#50 + x#7#50 + x#6#50 + x#5#50
  + x#4#50 + x#3#50 + x#2#50 + x#1#50 <= 1
Bounds
 0 <= x#1#1 <= 1
 0 <= x#1#2 <= 1
 0 <= x#1#3 <= 1
 0 <= x#1#4 <= 1
 0 <= x#1#5 <= 1
 0 <= x#1#6 <= 1
 0 <= x#1#7 <= 1
 0 <= x#1#8 <= 1
 0 <= x#1#9 <= 1
 0 <= x#1#10 <= 1
 0 <= x#1#11 <= 1
 0 <= x#1#12 <= 1
 0 <= x#1#13 <= 1
 0 <= x#1#14 <= 1
 0 <= x#1#15 <= 1
 0 <= x#1#16 <= 1
 0 <= x#1#17 <= 1
 0 <= x#1#18 <= 1
 0 <= x#1#19 <= 1
 0 <= x#1#20 <= 1
 0 <= x#1#21 <= 1
 0 <= x#1#22 <= 1
 0 <= x#1#23 <= 1
 0 <= x#1#24 <= 1
 0 <= x#1#25 <= 1
 0 <= x#1#26 <= 1
 0 <= x#1#27 <= 1
 0 <= x#1#28 <= 1
 0 <= x#1#29 <= 1
 0 <= x#1#30 <= 1
 0 <= x#1#31 <= 1
 0 <= x#1#32 <= 1
 0 <= x#1#33 <= 1
 0 <= x#1#34 <= 1
 0 <= x#1#35 <= 1
 0 <= x#1#36 <= 1
 0 <= x#1#37 <= 1
 0 <= x#1#38 <= 1
 0 <= x#1#39 <= 1
 0 <= x#1#40 <= 1
 0 <= x#1#41 <= 1
 0 <= x#1#42 <= 1
 0 <= x#1#43 <= 1
 0 <= x#1#44 <= 1
 0 <= x#1#45 <= 1
 0 <= x#1#46 <= 1
 0 <= x#1#47 <= 1
 0 <= x#1#48 <= 1
 0 <= x#1#49 <= 1
 0 <= x#1#50 <= 1
 0 <= x#2#1 <= 1
 0 <= x#2#2 <= 1
 0 <= x#2#3 <= 1
 0 <= x#2#4 <= 1
 0 <= x#2#5 <= 1
 0 <= x#2#6 <= 1
 0 <= x#2#7 <= 1
 0 <= x#2#8 <= 1
 0 <= x#2#9 <= 1
 0 <= x#2#10 <= 1
 0 <= x#2#11 <= 1
 0 <= x#2#12 <= 1
 0 <= x#2#13 <= 1
 0 <= x#2#14 <= 1
 0 <= x#2#15 <= 1
 0 <= x#2#16 <= 1
 0 <= x#2#17 <= 1
 0 <= x#2#18 <= 1
 0 <= x#2#19 <= 1
 0 <= x#2#20 <= 1
 0 <= x#2#21 <= 1
 0 <= x#2#22 <= 1
 0 <= x#2#23 <= 1
 0 <= x#2#24 <= 1
 0 <= x#2#25 <= 1
 0 <= x#2#26 <= 1
 0 <= x#2#27 <= 1
 0 <= x#2#28 <= 1
 0 <= x#2#29 <= 1
 0 <= x#2#30 <= 1
 0 <= x#2#31 <= 1
 0 <= x#2#32 <= 1
 0 <= x#2#33 <= 1
 0 <= x#2#34 <= 1
 0 <= x#2#35 <= 1
 0 <= x#2#36 <= 1
 0 <= x#2#37 <= 1
 0 <= x#2#38 <= 1
 0 <= x#2#39 <= 1
 0 <= x#2#40 <= 1
 0 <= x#2#41 <= 1
 0 <= x#2#42 <= 1
 0 <= x#2#43 <= 1
 0 <= x#2#44 <= 1
 0 <= x#2#45 <= 1
 0 <= x#2#46 <= 1
 0 <= x#2#47 <= 1
 0 <= x#2#48 <= 1
 0 <= x#2#49 <= 1
 0 <= x#2#50 <= 1
 0 <= x#3#1 <= 1
 0 <= x#3#2 <= 1
 0 <= x#3#3 <= 1
 0 <= x#3#4 <= 1
 0 <= x#3#5 <= 1
 0 <= x#3#6 <= 1
 0 <= x#3#7 <= 1
 0 <= x#3#8 <= 1
 0 <= x#3#9 <= 1
 0 <= x#3#10 <= 1
 0 <= x#3#11 <= 1
 0 <= x#3#12 <= 1
 0 <= x#3#13 <= 1
 0 <= x#3#14 <= 1
 0 <= x#3#15 <= 1
 0 <= x#3#16 <= 1
 0 <= x#3#17 <= 1
 0 <= x#3#18 <= 1
 0 <= x#3#19 <= 1
 0 <= x#3#20 <= 1
 0 <= x#3#21 <= 1
 0 <= x#3#22 <= 1
 0 <= x#3#23 <= 1
 0 <= x#3#24 <= 1
 0 <= x#3#25 <= 1
 0 <= x#3#26 <= 1
 0 <= x#3#27 <= 1
 0 <= x#3#28 <= 1
 0 <= x#3#29 <= 1
 0 <= x#3#30 <= 1
 0 <= x#3#31 <= 1
 0 <= x#3#32 <= 1
 0 <= x#3#33 <= 1
 0 <= x#3#34 <= 1
 0 <= x#3#35 <= 1
 0 <= x#3#36 <= 1
 0 <= x#3#37 <= 1
 0 <= x#3#38 <= 1
 0 <= x#3#39 <= 1
 0 <= x#3#40 <= 1
 0 <= x#3#41 <= 1
 0 <= x#3#42 <= 1
 0 <= x#3#43 <= 1
 0 <= x#3#44 <= 1
 0 <= x#3#45 <= 1
 0 <= x#3#46 <= 1
 0 <= x#3#47 <= 1
 0 <= x#3#48 <= 1
 0 <= x#3#49 <= 1
 0 <= x#3#50 <= 1
 0 <= x#4#1 <= 1
 0 <= x#4#2 <= 1
 0 <= x#4#3 <= 1
 0 <= x#4#4 <= 1
 0 <= x#4#5 <= 1
 0 <= x#4#6 <= 1
 0 <= x#4#7 <= 1
 0 <= x#4#8 <= 1
 0 <= x#4#9 <= 1
 0 <= x#4#10 <= 1
 0 <= x#4#11 <= 1
 0 <= x#4#12 <= 1
 0 <= x#4#13 <= 1
 0 <= x#4#14 <= 1
 0 <= x#4#15 <= 1
 0 <= x#4#16 <= 1
 0 <= x#4#17 <= 1
 0 <= x#4#18 <= 1
 0 <= x#4#19 <= 1
 0 <= x#4#20 <= 1
 0 <= x#4#21 <= 1
 0 <= x#4#22 <= 1
 0 <= x#4#23 <= 1
 0 <= x#4#24 <= 1
 0 <= x#4#25 <= 1
 0 <= x#4#26 <= 1
 0 <= x#4#27 <= 1
 0 <= x#4#28 <= 1
 0 <= x#4#29 <= 1
 0 <= x#4#30 <= 1
 0 <= x#4#31 <= 1
 0 <= x#4#32 <= 1
 0 <= x#4#33 <= 1
 0 <= x#4#34 <= 1
 0 <= x#4#35 <= 1
 0 <= x#4#36 <= 1
 0 <= x#4#37 <= 1
 0 <= x#4#38 <= 1
 0 <= x#4#39 <= 1
 0 <= x#4#40 <= 1
 0 <= x#4#41 <= 1
 0 <= x#4#42 <= 1
 0 <= x#4#43 <= 1
 0 <= x#4#44 <= 1
 0 <= x#4#45 <= 1
 0 <= x#4#46 <= 1
 0 <= x#4#47 <= 1
 0 <= x#4#48 <= 1
 0 <= x#4#49 <= 1
 0 <= x#4#50 <= 1
 0 <= x#5#1 <= 1
 0 <= x#5#2 <= 1
 0 <= x#5#3 <= 1
 0 <= x#5#4 <= 1
 0 <= x#5#5 <= 1
 0 <= x#5#6 <= 1
 0 <= x#5#7 <= 1
 0 <= x#5#8 <= 1
 0 <= x#5#9 <= 1
 0 <= x#5#10 <= 1
 0 <= x#5#11 <= 1
 0 <= x#5#12 <= 1
 0 <= x#5#13 <= 1
 0 <= x#5#14 <= 1
 0 <= x#5#15 <= 1
 0 <= x#5#16 <= 1
 0 <= x#5#17 <= 1
 0 <= x#5#18 <= 1
 0 <= x#5#19 <= 1
 0 <= x#5#20 <= 1
 0 <= x#5#21 <= 1
 0 <= x#5#22 <= 1
 0 <= x#5#23 <= 1
 0 <= x#5#24 <= 1
 0 <= x#5#25 <= 1
 0 <= x#5#26 <= 1
 0 <= x#5#27 <= 1
 0 <= x#5#28 <= 1
 0 <= x#5#29 <= 1
 0 <= x#5#30 <= 1
 0 <= x#5#31 <= 1
 0 <= x#5#32 <= 1
 0 <= x#5#33 <= 1
 0 <= x#5#34 <= 1
 0 <= x#5#35 <= 1
 0 <= x#5#36 <= 1
 0 <= x#5#37 <= 1
 0 <= x#5#38 <= 1
 0 <= x#5#39 <= 1
 0 <= x#5#40 <= 1
 0 <= x#5#41 <= 1
 0 <= x#5#42 <= 1
 0 <= x#5#43 <= 1
 0 <= x#5#44 <= 1
 0 <= x#5#45 <= 1
 0 <= x#5#46 <= 1
 0 <= x#5#47 <= 1
 0 <= x#5#48 <= 1
 0 <= x#5#49 <= 1
 0 <= x#5#50 <= 1
 0 <= x#6#1 <= 1
 0 <= x#6#2 <= 1
 0 <= x#6#3 <= 1
 0 <= x#6#4 <= 1
 0 <= x#6#5 <= 1
 0 <= x#6#6 <= 1
 0 <= x#6#7 <= 1
 0 <= x#6#8 <= 1
 0 <= x#6#9 <= 1
 0 <= x#6#10 <= 1
 0 <= x#6#11 <= 1
 0 <= x#6#12 <= 1
 0 <= x#6#13 <= 1
 0 <= x#6#14 <= 1
 0 <= x#6#15 <= 1
 0 <= x#6#16 <= 1
 0 <= x#6#17 <= 1
 0 <= x#6#18 <= 1
 0 <= x#6#19 <= 1
 0 <= x#6#20 <= 1
 0 <= x#6#21 <= 1
 0 <= x#6#22 <= 1
 0 <= x#6#23 <= 1
 0 <= x#6#24 <= 1
 0 <= x#6#25 <= 1
 0 <= x#6#26 <= 1
 0 <= x#6#27 <= 1
 0 <= x#6#28 <= 1
 0 <= x#6#29 <= 1
 0 <= x#6#30 <= 1
 0 <= x#6#31 <= 1
 0 <= x#6#32 <= 1
 0 <= x#6#33 <= 1
 0 <= x#6#34 <= 1
 0 <= x#6#35 <= 1
 0 <= x#6#36 <= 1
 0 <= x#6#37 <= 1
 0 <= x#6#38 <= 1
 0 <= x#6#39 <= 1
 0 <= x#6#40 <= 1
 0 <= x#6#41 <= 1
 0 <= x#6#42 <= 1
 0 <= x#6#43 <= 1
 0 <= x#6#44 <= 1
 0 <= x#6#45 <= 1
 0 <= x#6#46 <= 1
 0 <= x#6#47 <= 1
 0 <= x#6#48 <= 1
 0 <= x#6#49 <= 1
 0 <= x#6#50 <= 1
 0 <= x#7#1 <= 1
 0 <= x#7#2 <= 1
 0 <= x#7#3 <= 1
 0 <= x#7#4 <= 1
 0 <= x#7#5 <= 1
 0 <= x#7#6 <= 1
 0 <= x#7#7 <= 1
 0 <= x#7#8 <= 1
 0 <= x#7#9 <= 1
 0 <= x#7#10 <= 1
 0 <= x#7#11 <= 1
 0 <= x#7#12 <= 1
 0 <= x#7#13 <= 1
 0 <= x#7#14 <= 1
 0 <= x#7#15 <= 1
 0 <= x#7#16 <= 1
 0 <= x#7#17 <= 1
 0 <= x#7#18 <= 1
 0 <= x#7#19 <= 1
 0 <= x#7#20 <= 1
 0 <= x#7#21 <= 1
 0 <= x#7#22 <= 1
 0 <= x#7#23 <= 1
 0 <= x#7#24 <= 1
 0 <= x#7#25 <= 1
 0 <= x#7#26 <= 1
 0 <= x#7#27 <= 1
 0 <= x#7#28 <= 1
 0 <= x#7#29 <= 1
 0 <= x#7#30 <= 1
 0 <= x#7#31 <= 1
 0 <= x#7#32 <= 1
 0 <= x#7#33 <= 1
 0 <= x#7#34 <= 1
 0 <= x#7#35 <= 1
 0 <= x#7#36 <= 1
 0 <= x#7#37 <= 1
 0 <= x#7#38 <= 1
 0 <= x#7#39 <= 1
 0 <= x#7#40 <= 1
 0 <= x#7#41 <= 1
 0 <= x#7#42 <= 1
 0 <= x#7#43 <= 1
 0 <= x#7#44 <= 1
 0 <= x#7#45 <= 1
 0 <= x#7#46 <= 1
 0 <= x#7#47 <= 1
 0 <= x#7#48 <= 1
 0 <= x#7#49 <= 1
 0 <= x#7#50 <= 1
 0 <= x#8#1 <= 1
 0 <= x#8#2 <= 1
 0 <= x#8#3 <= 1
 0 <= x#8#4 <= 1
 0 <= x#8#5 <= 1
 0 <= x#8#6 <= 1
 0 <= x#8#7 <= 1
 0 <= x#8#8 <= 1
 0 <= x#8#9 <= 1
 0 <= x#8#10 <= 1
 0 <= x#8#11 <= 1
 0 <= x#8#12 <= 1
 0 <= x#8#13 <= 1
 0 <= x#8#14 <= 1
 0 <= x#8#15 <= 1
 0 <= x#8#16 <= 1
 0 <= x#8#17 <= 1
 0 <= x#8#18 <= 1
 0 <= x#8#19 <= 1
 0 <= x#8#20 <= 1
 0 <= x#8#21 <= 1
 0 <= x#8#22 <= 1
 0 <= x#8#23 <= 1
 0 <= x#8#24 <= 1
 0 <= x#8#25 <= 1
 0 <= x#8#26 <= 1
 0 <= x#8#27 <= 1
 0 <= x#8#28 <= 1
 0 <= x#8#29 <= 1
 0 <= x#8#30 <= 1
 0 <= x#8#31 <= 1
 0 <= x#8#32 <= 1
 0 <= x#8#33 <= 1
 0 <= x#8#34 <= 1
 0 <= x#8#35 <= 1
 0 <= x#8#36 <= 1
 0 <= x#8#37 <= 1
 0 <= x#8#38 <= 1
 0 <= x#8#39 <= 1
 0 <= x#8#40 <= 1
 0 <= x#8#41 <= 1
 0 <= x#8#42 <= 1
 0 <= x#8#43 <= 1
 0 <= x#8#44 <= 1
 0 <= x#8#45 <= 1
 0 <= x#8#46 <= 1
 0 <= x#8#47 <= 1
 0 <= x#8#48 <= 1
 0 <= x#8#49 <= 1
 0 <= x#8#50 <= 1
 0 <= x#9#1 <= 1
 0 <= x#9#2 <= 1
 0 <= x#9#3 <= 1
 0 <= x#9#4 <= 1
 0 <= x#9#5 <= 1
 0 <= x#9#6 <= 1
 0 <= x#9#7 <= 1
 0 <= x#9#8 <= 1
 0 <= x#9#9 <= 1
 0 <= x#9#10 <= 1
 0 <= x#9#11 <= 1
 0 <= x#9#12 <= 1
 0 <= x#9#13 <= 1
 0 <= x#9#14 <= 1
 0 <= x#9#15 <= 1
 0 <= x#9#16 <= 1
 0 <= x#9#17 <= 1
 0 <= x#9#18 <= 1
 0 <= x#9#19 <= 1
 0 <= x#9#20 <= 1
 0 <= x#9#21 <= 1
 0 <= x#9#22 <= 1
 0 <= x#9#23 <= 1
 0 <= x#9#24 <= 1
 0 <= x#9#25 <= 1
 0 <= x#9#26 <= 1
 0 <= x#9#27 <= 1
 0 <= x#9#28 <= 1
 0 <= x#9#29 <= 1
 0 <= x#9#30 <= 1
 0 <= x#9#31 <= 1
 0 <= x#9#32 <= 1
 0 <= x#9#33 <= 1
 0 <= x#9#34 <= 1
 0 <= x#9#35 <= 1
 0 <= x#9#36 <= 1
 0 <= x#9#37 <= 1
 0 <= x#9#38 <= 1
 0 <= x#9#39 <= 1
 0 <= x#9#40 <= 1
 0 <= x#9#41 <= 1
 0 <= x#9#42 <= 1
 0 <= x#9#43 <= 1
 0 <= x#9#44 <= 1
 0 <= x#9#45 <= 1
 0 <= x#9#46 <= 1
 0 <= x#9#47 <= 1
 0 <= x#9#48 <= 1
 0 <= x#9#49 <= 1
 0 <= x#9#50 <= 1
 0 <= x#10#1 <= 1
 0 <= x#10#2 <= 1
 0 <= x#10#3 <= 1
 0 <= x#10#4 <= 1
 0 <= x#10#5 <= 1
 0 <= x#10#6 <= 1
 0 <= x#10#7 <= 1
 0 <= x#10#8 <= 1
 0 <= x#10#9 <= 1
 0 <= x#10#10 <= 1
 0 <= x#10#11 <= 1
 0 <= x#10#12 <= 1
 0 <= x#10#13 <= 1
 0 <= x#10#14 <= 1
 0 <= x#10#15 <= 1
 0 <= x#10#16 <= 1
 0 <= x#10#17 <= 1
 0 <= x#10#18 <= 1
 0 <= x#10#19 <= 1
 0 <= x#10#20 <= 1
 0 <= x#10#21 <= 1
 0 <= x#10#22 <= 1
 0 <= x#10#23 <= 1
 0 <= x#10#24 <= 1
 0 <= x#10#25 <= 1
 0 <= x#10#26 <= 1
 0 <= x#10#27 <= 1
 0 <= x#10#28 <= 1
 0 <= x#10#29 <= 1
 0 <= x#10#30 <= 1
 0 <= x#10#31 <= 1
 0 <= x#10#32 <= 1
 0 <= x#10#33 <= 1
 0 <= x#10#34 <= 1
 0 <= x#10#35 <= 1
 0 <= x#10#36 <= 1
 0 <= x#10#37 <= 1
 0 <= x#10#38 <= 1
 0 <= x#10#39 <= 1
 0 <= x#10#40 <= 1
 0 <= x#10#41 <= 1
 0 <= x#10#42 <= 1
 0 <= x#10#43 <= 1
 0 <= x#10#44 <= 1
 0 <= x#10#45 <= 1
 0 <= x#10#46 <= 1
 0 <= x#10#47 <= 1
 0 <= x#10#48 <= 1
 0 <= x#10#49 <= 1
 0 <= x#10#50 <= 1
General
 x#1#1
 x#1#2
 x#1#3
 x#1#4
 x#1#5
 x#1#6
 x#1#7
 x#1#8
 x#1#9
 x#1#10
 x#1#11
 x#1#12
 x#1#13
 x#1#14
 x#1#15
 x#1#16
 x#1#17
 x#1#18
 x#1#19
 x#1#20
 x#1#21
 x#1#22
 x#1#23
 x#1#24
 x#1#25
 x#1#26
 x#1#27
 x#1#28
 x#1#29
 x#1#30
 x#1#31
 x#1#32
 x#1#33
 x#1#34
 x#1#35
 x#1#36
 x#1#37
 x#1#38
 x#1#39
 x#1#40
 x#1#41
 x#1#42
 x#1#43
 x#1#44
 x#1#45
 x#1#46
 x#1#47
 x#1#48
 x#1#49
 x#1#50
 x#2#1
 x#2#2
 x#2#3
 x#2#4
 x#2#5
 x#2#6
 x#2#7
 x#2#8
 x#2#9
 x#2#10
 x#2#11
 x#2#12
 x#2#13
 x#2#14
 x#2#15
 x#2#16
 x#2#17
 x#2#18
 x#2#19
 x#2#20
 x#2#21
 x#2#22
 x#2#23
 x#2#24
 x#2#25
 x#2#26
 x#2#27
 x#2#28
 x#2#29
 x#2#30
 x#2#31
 x#2#32
 x#2#33
 x#2#34
 x#2#35
 x#2#36
 x#2#37
 x#2#38
 x#2#39
 x#2#40
 x#2#41
 x#2#42
 x#2#43
 x#2#44
 x#2#45
 x#2#46
 x#2#47
 x#2#48
 x#2#49
 x#2#50
 x#3#1
 x#3#2
 x#3#3
 x#3#4
 x#3#5
 x#3#6
 x#3#7
 x#3#8
 x#3#9
 x#3#10
 x#3#11
 x#3#12
 x#3#13
 x#3#14
 x#3#15
 x#3#16
 x#3#17
 x#3#18
 x#3#19
 x#3#20
 x#3#21
 x#3#22
 x#3#23
 x#3#24
 x#3#25
 x#3#26
 x#3#27
 x#3#28
 x#3#29
 x#3#30
 x#3#31
 x#3#32
 x#3#33
 x#3#34
 x#3#35
 x#3#36
 x#3#37
 x#3#38
 x#3#39
 x#3#40
 x#3#41
 x#3#42
 x#3#43
 x#3#44
 x#3#45
 x#3#46
 x#3#47
 x#3#48
 x#3#49
 x#3#50
 x#4#1
 x#4#2
 x#4#3
 x#4#4
 x#4#5
 x#4#6
 x#4#7
 x#4#8
 x#4#9
 x#4#10
 x#4#11
 x#4#12
 x#4#13
 x#4#14
 x#4#15
 x#4#16
 x#4#17
 x#4#18
 x#4#19
 x#4#20
 x#4#21
 x#4#22
 x#4#23
 x#4#24
 x#4#25
 x#4#26
 x#4#27
 x#4#28
 x#4#29
 x#4#30
 x#4#31
 x#4#32
 x#4#33
 x#4#34
 x#4#35
 x#4#36
 x#4#37
 x#4#38
 x#4#39
 x#4#40
 x#4#41
 x#4#42
 x#4#43
 x#4#44
 x#4#45
 x#4#46
 x#4#47
 x#4#48
 x#4#49
 x#4#50
 x#5#1
 x#5#2
 x#5#3
 x#5#4
 x#5#5
 x#5#6
 x#5#7
 x#5#8
 x#5#9
 x#5#10
 x#5#11
 x#5#12
 x#5#13
 x#5#14
 x#5#15
 x#5#16
 x#5#17
 x#5#18
 x#5#19
 x#5#20
 x#5#21
 x#5#22
 x#5#23
 x#5#24
 x#5#25
 x#5#26
 x#5#27
 x#5#28
 x#5#29
 x#5#30
 x#5#31
 x#5#32
 x#5#33
 x#5#34
 x#5#35
 x#5#36
 x#5#37
 x#5#38
 x#5#39
 x#5#40
 x#5#41
 x#5#42
 x#5#43
 x#5#44
 x#5#45
 x#5#46
 x#5#47
 x#5#48
 x#5#49
 x#5#50
 x#6#1
 x#6#2
 x#6#3
 x#6#4
 x#6#5
 x#6#6
 x#6#7
 x#6#8
 x#6#9
 x#6#10
 x#6#11
 x#6#12
 x#6#13
 x#6#14
 x#6#15
 x#6#16
 x#6#17
 x#6#18
 x#6#19
 x#6#20
 x#6#21
 x#6#22
 x#6#23
 x#6#24
 x#6#25
 x#6#26
 x#6#27
 x#6#28
 x#6#29
 x#6#30
 x#6#31
 x#6#32
 x#6#33
 x#6#34
 x#6#35
 x#6#36
 x#6#37
 x#6#38
 x#6#39
 x#6#40
 x#6#41
 x#6#42
 x#6#43
 x#6#44
 x#6#45
 x#6#46
 x#6#47
 x#6#48
 x#6#49
 x#6#50
 x#7#1
 x#7#2
 x#7#3
 x#7#4
 x#7#5
 x#7#6
 x#7#7
 x#7#8
 x#7#9
 x#7#10
 x#7#11
 x#7#12
 x#7#13
 x#7#14
 x#7#15
 x#7#16
 x#7#17
 x#7#18
 x#7#19
 x#7#20
 x#7#21
 x#7#22
 x#7#23
 x#7#24
 x#7#25
 x#7#26
 x#7#27
 x#7#28
 x#7#29
 x#7#30
 x#7#31
 x#7#32
 x#7#33
 x#7#34
 x#7#35
 x#7#36
 x#7#37
 x#7#38
 x#7#39
 x#7#40
 x#7#41
 x#7#42
 x#7#43
 x#7#44
 x#7#45
 x#7#46
 x#7#47
 x#7#48
 x#7#49
 x#7#50
 x#8#1
 x#8#2
 x#8#3
 x#8#4
 x#8#5
 x#8#6
 x#8#7
 x#8#8
 x#8#9
 x#8#10
 x#8#11
 x#8#12
 x#8#13
 x#8#14
 x#8#15
 x#8#16
 x#8#17
 x#8#18
 x#8#19
 x#8#20
 x#8#21
 x#8#22
 x#8#23
 x#8#24
 x#8#25
 x#8#26
 x#8#27
 x#8#28
 x#8#29
 x#8#30
 x#8#31
 x#8#32
 x#8#33
 x#8#34
 x#8#35
 x#8#36
 x#8#37
 x#8#38
 x#8#39
 x#8#40
 x#8#41
 x#8#42
 x#8#43
 x#8#44
 x#8#45
 x#8#46
 x#8#47
 x#8#48
 x#8#49
 x#8#50
 x#9#1
 x#9#2
 x#9#3
 x#9#4
 x#9#5
 x#9#6
 x#9#7
 x#9#8
 x#9#9
 x#9#10
 x#9#11
 x#9#12
 x#9#13
 x#9#14
 x#9#15
 x#9#16
 x#9#17
 x#9#18
 x#9#19
 x#9#20
 x#9#21
 x#9#22
 x#9#23
 x#9#24
 x#9#25
 x#9#26
 x#9#27
 x#9#28
 x#9#29
 x#9#30
 x#9#31
 x#9#32
 x#9#33
 x#9#34
 x#9#35
 x#9#36
 x#9#37
 x#9#38
 x#9#39
 x#9#40
 x#9#41
 x#9#42
 x#9#43
 x#9#44
 x#9#45
 x#9#46
 x#9#47
 x#9#48
 x#9#49
 x#9#50
 x#10#1
 x#10#2
 x#10#3
 x#10#4
 x#10#5
 x#10#6
 x#10#7
 x#10#8
 x#10#9
 x#10#10
 x#10#11
 x#10#12
 x#10#13
 x#10#14
 x#10#15
 x#10#16
 x#10#17
 x#10#18
 x#10#19
 x#10#20
 x#10#21
 x#10#22
 x#10#23
 x#10#24
 x#10#25
 x#10#26
 x#10#27
 x#10#28
 x#10#29
 x#10#30
 x#10#31
 x#10#32
 x#10#33
 x#10#34
 x#10#35
 x#10#36
 x#10#37
 x#10#38
 x#10#39
 x#10#40
 x#10#41
 x#10#42
 x#10#43
 x#10#44
 x#10#45
 x#10#46
 x#10#47
 x#10#48
 x#10#49
 x#10#50
End
